c turning on binary mode checking
c parsing input formula with 932 variables and 2994 clauses
c finished parsing, read 57541130 bytes from proof file
c detected empty clause; start verification via backward checking
c 2491 of 2994 clauses in core                            
c 843102 of 1028314 lemmas in core using 56212998 resolution steps
c 0 RAT lemmas in core; 532356 redundant literals in core lemmas
s VERIFIED
c verification time: 200.622 seconds
